p knf 512 772
1 2 3 4 5 6 7 8 9 10 11 12 13 14 15 16 0
17 18 19 20 21 22 23 24 25 26 27 28 29 30 31 32 0
33 34 35 36 37 38 39 40 41 42 43 44 45 46 47 48 0
49 50 51 52 53 54 55 56 57 58 59 60 61 62 63 64 0
65 66 67 68 69 70 71 72 73 74 75 76 77 78 79 80 0
81 82 83 84 85 86 87 88 89 90 91 92 93 94 95 96 0
97 98 99 100 101 102 103 104 105 106 107 108 109 110 111 112 0
113 114 115 116 117 118 119 120 121 122 123 124 125 126 127 128 0
129 130 131 132 133 134 135 136 137 138 139 140 141 142 143 144 0
145 146 147 148 149 150 151 152 153 154 155 156 157 158 159 160 0
161 162 163 164 165 166 167 168 169 170 171 172 173 174 175 176 0
177 178 179 180 181 182 183 184 185 186 187 188 189 190 191 192 0
193 194 195 196 197 198 199 200 201 202 203 204 205 206 207 208 0
209 210 211 212 213 214 215 216 217 218 219 220 221 222 223 224 0
225 226 227 228 229 230 231 232 233 234 235 236 237 238 239 240 0
241 242 243 244 245 246 247 248 249 250 251 252 253 254 255 256 0
k 15 -1 -17 -33 -49 -65 -81 -97 -113 -129 -145 -161 -177 -193 -209 -225 -241 0
k 15 -2 -18 -34 -50 -66 -82 -98 -114 -130 -146 -162 -178 -194 -210 -226 -242 0
k 15 -3 -19 -35 -51 -67 -83 -99 -115 -131 -147 -163 -179 -195 -211 -227 -243 0
k 15 -4 -20 -36 -52 -68 -84 -100 -116 -132 -148 -164 -180 -196 -212 -228 -244 0
k 15 -5 -21 -37 -53 -69 -85 -101 -117 -133 -149 -165 -181 -197 -213 -229 -245 0
k 15 -6 -22 -38 -54 -70 -86 -102 -118 -134 -150 -166 -182 -198 -214 -230 -246 0
k 15 -7 -23 -39 -55 -71 -87 -103 -119 -135 -151 -167 -183 -199 -215 -231 -247 0
k 15 -8 -24 -40 -56 -72 -88 -104 -120 -136 -152 -168 -184 -200 -216 -232 -248 0
k 15 -9 -25 -41 -57 -73 -89 -105 -121 -137 -153 -169 -185 -201 -217 -233 -249 0
k 15 -10 -26 -42 -58 -74 -90 -106 -122 -138 -154 -170 -186 -202 -218 -234 -250 0
k 15 -11 -27 -43 -59 -75 -91 -107 -123 -139 -155 -171 -187 -203 -219 -235 -251 0
k 15 -12 -28 -44 -60 -76 -92 -108 -124 -140 -156 -172 -188 -204 -220 -236 -252 0
k 15 -13 -29 -45 -61 -77 -93 -109 -125 -141 -157 -173 -189 -205 -221 -237 -253 0
k 15 -14 -30 -46 -62 -78 -94 -110 -126 -142 -158 -174 -190 -206 -222 -238 -254 0
k 15 -15 -31 -47 -63 -79 -95 -111 -127 -143 -159 -175 -191 -207 -223 -239 -255 0
k 15 -16 -32 -48 -64 -80 -96 -112 -128 -144 -160 -176 -192 -208 -224 -240 -256 0
257 0
258 -259 0
259 -260 0
260 -261 0
261 -262 0
262 -263 0
263 -264 0
264 -265 0
265 -266 0
266 -267 0
267 -268 0
268 -269 0
269 -270 0
270 -271 0
271 -272 0
273 0
274 -275 0
275 -276 0
276 -277 0
277 -278 0
278 -279 0
279 -280 0
280 -281 0
281 -282 0
282 -283 0
283 -284 0
284 -285 0
285 -286 0
286 -287 0
287 -288 0
289 0
290 -291 0
291 -292 0
292 -293 0
293 -294 0
294 -295 0
295 -296 0
296 -297 0
297 -298 0
298 -299 0
299 -300 0
300 -301 0
301 -302 0
302 -303 0
303 -304 0
305 0
306 -307 0
307 -308 0
308 -309 0
309 -310 0
310 -311 0
311 -312 0
312 -313 0
313 -314 0
314 -315 0
315 -316 0
316 -317 0
317 -318 0
318 -319 0
319 -320 0
321 0
322 -323 0
323 -324 0
324 -325 0
325 -326 0
326 -327 0
327 -328 0
328 -329 0
329 -330 0
330 -331 0
331 -332 0
332 -333 0
333 -334 0
334 -335 0
335 -336 0
337 0
338 -339 0
339 -340 0
340 -341 0
341 -342 0
342 -343 0
343 -344 0
344 -345 0
345 -346 0
346 -347 0
347 -348 0
348 -349 0
349 -350 0
350 -351 0
351 -352 0
353 0
354 -355 0
355 -356 0
356 -357 0
357 -358 0
358 -359 0
359 -360 0
360 -361 0
361 -362 0
362 -363 0
363 -364 0
364 -365 0
365 -366 0
366 -367 0
367 -368 0
369 0
370 -371 0
371 -372 0
372 -373 0
373 -374 0
374 -375 0
375 -376 0
376 -377 0
377 -378 0
378 -379 0
379 -380 0
380 -381 0
381 -382 0
382 -383 0
383 -384 0
385 0
386 -387 0
387 -388 0
388 -389 0
389 -390 0
390 -391 0
391 -392 0
392 -393 0
393 -394 0
394 -395 0
395 -396 0
396 -397 0
397 -398 0
398 -399 0
399 -400 0
401 0
402 -403 0
403 -404 0
404 -405 0
405 -406 0
406 -407 0
407 -408 0
408 -409 0
409 -410 0
410 -411 0
411 -412 0
412 -413 0
413 -414 0
414 -415 0
415 -416 0
417 0
418 -419 0
419 -420 0
420 -421 0
421 -422 0
422 -423 0
423 -424 0
424 -425 0
425 -426 0
426 -427 0
427 -428 0
428 -429 0
429 -430 0
430 -431 0
431 -432 0
433 0
434 -435 0
435 -436 0
436 -437 0
437 -438 0
438 -439 0
439 -440 0
440 -441 0
441 -442 0
442 -443 0
443 -444 0
444 -445 0
445 -446 0
446 -447 0
447 -448 0
449 0
450 -451 0
451 -452 0
452 -453 0
453 -454 0
454 -455 0
455 -456 0
456 -457 0
457 -458 0
458 -459 0
459 -460 0
460 -461 0
461 -462 0
462 -463 0
463 -464 0
465 0
466 -467 0
467 -468 0
468 -469 0
469 -470 0
470 -471 0
471 -472 0
472 -473 0
473 -474 0
474 -475 0
475 -476 0
476 -477 0
477 -478 0
478 -479 0
479 -480 0
481 0
482 -483 0
483 -484 0
484 -485 0
485 -486 0
486 -487 0
487 -488 0
488 -489 0
489 -490 0
490 -491 0
491 -492 0
492 -493 0
493 -494 0
494 -495 0
495 -496 0
497 0
498 -499 0
499 -500 0
500 -501 0
501 -502 0
502 -503 0
503 -504 0
504 -505 0
505 -506 0
506 -507 0
507 -508 0
508 -509 0
509 -510 0
510 -511 0
511 -512 0
-1 -258 0
-2  258 0
-2 -259 0
-3  259 0
-3 -260 0
-4  260 0
-4 -261 0
-5  261 0
-5 -262 0
-6  262 0
-6 -263 0
-7  263 0
-7 -264 0
-8  264 0
-8 -265 0
-9  265 0
-9 -266 0
-10  266 0
-10 -267 0
-11  267 0
-11 -268 0
-12  268 0
-12 -269 0
-13  269 0
-13 -270 0
-14  270 0
-14 -271 0
-15  271 0
-15 -272 0
-16  272 0
-17 -274 0
-18  274 0
-18 -275 0
-19  275 0
-19 -276 0
-20  276 0
-20 -277 0
-21  277 0
-21 -278 0
-22  278 0
-22 -279 0
-23  279 0
-23 -280 0
-24  280 0
-24 -281 0
-25  281 0
-25 -282 0
-26  282 0
-26 -283 0
-27  283 0
-27 -284 0
-28  284 0
-28 -285 0
-29  285 0
-29 -286 0
-30  286 0
-30 -287 0
-31  287 0
-31 -288 0
-32  288 0
-33 -290 0
-34  290 0
-34 -291 0
-35  291 0
-35 -292 0
-36  292 0
-36 -293 0
-37  293 0
-37 -294 0
-38  294 0
-38 -295 0
-39  295 0
-39 -296 0
-40  296 0
-40 -297 0
-41  297 0
-41 -298 0
-42  298 0
-42 -299 0
-43  299 0
-43 -300 0
-44  300 0
-44 -301 0
-45  301 0
-45 -302 0
-46  302 0
-46 -303 0
-47  303 0
-47 -304 0
-48  304 0
-49 -306 0
-50  306 0
-50 -307 0
-51  307 0
-51 -308 0
-52  308 0
-52 -309 0
-53  309 0
-53 -310 0
-54  310 0
-54 -311 0
-55  311 0
-55 -312 0
-56  312 0
-56 -313 0
-57  313 0
-57 -314 0
-58  314 0
-58 -315 0
-59  315 0
-59 -316 0
-60  316 0
-60 -317 0
-61  317 0
-61 -318 0
-62  318 0
-62 -319 0
-63  319 0
-63 -320 0
-64  320 0
-65 -322 0
-66  322 0
-66 -323 0
-67  323 0
-67 -324 0
-68  324 0
-68 -325 0
-69  325 0
-69 -326 0
-70  326 0
-70 -327 0
-71  327 0
-71 -328 0
-72  328 0
-72 -329 0
-73  329 0
-73 -330 0
-74  330 0
-74 -331 0
-75  331 0
-75 -332 0
-76  332 0
-76 -333 0
-77  333 0
-77 -334 0
-78  334 0
-78 -335 0
-79  335 0
-79 -336 0
-80  336 0
-81 -338 0
-82  338 0
-82 -339 0
-83  339 0
-83 -340 0
-84  340 0
-84 -341 0
-85  341 0
-85 -342 0
-86  342 0
-86 -343 0
-87  343 0
-87 -344 0
-88  344 0
-88 -345 0
-89  345 0
-89 -346 0
-90  346 0
-90 -347 0
-91  347 0
-91 -348 0
-92  348 0
-92 -349 0
-93  349 0
-93 -350 0
-94  350 0
-94 -351 0
-95  351 0
-95 -352 0
-96  352 0
-97 -354 0
-98  354 0
-98 -355 0
-99  355 0
-99 -356 0
-100  356 0
-100 -357 0
-101  357 0
-101 -358 0
-102  358 0
-102 -359 0
-103  359 0
-103 -360 0
-104  360 0
-104 -361 0
-105  361 0
-105 -362 0
-106  362 0
-106 -363 0
-107  363 0
-107 -364 0
-108  364 0
-108 -365 0
-109  365 0
-109 -366 0
-110  366 0
-110 -367 0
-111  367 0
-111 -368 0
-112  368 0
-113 -370 0
-114  370 0
-114 -371 0
-115  371 0
-115 -372 0
-116  372 0
-116 -373 0
-117  373 0
-117 -374 0
-118  374 0
-118 -375 0
-119  375 0
-119 -376 0
-120  376 0
-120 -377 0
-121  377 0
-121 -378 0
-122  378 0
-122 -379 0
-123  379 0
-123 -380 0
-124  380 0
-124 -381 0
-125  381 0
-125 -382 0
-126  382 0
-126 -383 0
-127  383 0
-127 -384 0
-128  384 0
-129 -386 0
-130  386 0
-130 -387 0
-131  387 0
-131 -388 0
-132  388 0
-132 -389 0
-133  389 0
-133 -390 0
-134  390 0
-134 -391 0
-135  391 0
-135 -392 0
-136  392 0
-136 -393 0
-137  393 0
-137 -394 0
-138  394 0
-138 -395 0
-139  395 0
-139 -396 0
-140  396 0
-140 -397 0
-141  397 0
-141 -398 0
-142  398 0
-142 -399 0
-143  399 0
-143 -400 0
-144  400 0
-145 -402 0
-146  402 0
-146 -403 0
-147  403 0
-147 -404 0
-148  404 0
-148 -405 0
-149  405 0
-149 -406 0
-150  406 0
-150 -407 0
-151  407 0
-151 -408 0
-152  408 0
-152 -409 0
-153  409 0
-153 -410 0
-154  410 0
-154 -411 0
-155  411 0
-155 -412 0
-156  412 0
-156 -413 0
-157  413 0
-157 -414 0
-158  414 0
-158 -415 0
-159  415 0
-159 -416 0
-160  416 0
-161 -418 0
-162  418 0
-162 -419 0
-163  419 0
-163 -420 0
-164  420 0
-164 -421 0
-165  421 0
-165 -422 0
-166  422 0
-166 -423 0
-167  423 0
-167 -424 0
-168  424 0
-168 -425 0
-169  425 0
-169 -426 0
-170  426 0
-170 -427 0
-171  427 0
-171 -428 0
-172  428 0
-172 -429 0
-173  429 0
-173 -430 0
-174  430 0
-174 -431 0
-175  431 0
-175 -432 0
-176  432 0
-177 -434 0
-178  434 0
-178 -435 0
-179  435 0
-179 -436 0
-180  436 0
-180 -437 0
-181  437 0
-181 -438 0
-182  438 0
-182 -439 0
-183  439 0
-183 -440 0
-184  440 0
-184 -441 0
-185  441 0
-185 -442 0
-186  442 0
-186 -443 0
-187  443 0
-187 -444 0
-188  444 0
-188 -445 0
-189  445 0
-189 -446 0
-190  446 0
-190 -447 0
-191  447 0
-191 -448 0
-192  448 0
-193 -450 0
-194  450 0
-194 -451 0
-195  451 0
-195 -452 0
-196  452 0
-196 -453 0
-197  453 0
-197 -454 0
-198  454 0
-198 -455 0
-199  455 0
-199 -456 0
-200  456 0
-200 -457 0
-201  457 0
-201 -458 0
-202  458 0
-202 -459 0
-203  459 0
-203 -460 0
-204  460 0
-204 -461 0
-205  461 0
-205 -462 0
-206  462 0
-206 -463 0
-207  463 0
-207 -464 0
-208  464 0
-209 -466 0
-210  466 0
-210 -467 0
-211  467 0
-211 -468 0
-212  468 0
-212 -469 0
-213  469 0
-213 -470 0
-214  470 0
-214 -471 0
-215  471 0
-215 -472 0
-216  472 0
-216 -473 0
-217  473 0
-217 -474 0
-218  474 0
-218 -475 0
-219  475 0
-219 -476 0
-220  476 0
-220 -477 0
-221  477 0
-221 -478 0
-222  478 0
-222 -479 0
-223  479 0
-223 -480 0
-224  480 0
-225 -482 0
-226  482 0
-226 -483 0
-227  483 0
-227 -484 0
-228  484 0
-228 -485 0
-229  485 0
-229 -486 0
-230  486 0
-230 -487 0
-231  487 0
-231 -488 0
-232  488 0
-232 -489 0
-233  489 0
-233 -490 0
-234  490 0
-234 -491 0
-235  491 0
-235 -492 0
-236  492 0
-236 -493 0
-237  493 0
-237 -494 0
-238  494 0
-238 -495 0
-239  495 0
-239 -496 0
-240  496 0
-241 -498 0
-242  498 0
-242 -499 0
-243  499 0
-243 -500 0
-244  500 0
-244 -501 0
-245  501 0
-245 -502 0
-246  502 0
-246 -503 0
-247  503 0
-247 -504 0
-248  504 0
-248 -505 0
-249  505 0
-249 -506 0
-250  506 0
-250 -507 0
-251  507 0
-251 -508 0
-252  508 0
-252 -509 0
-253  509 0
-253 -510 0
-254  510 0
-254 -511 0
-255  511 0
-255 -512 0
-256  512 0
k 34 257 258 259 260 261 262 263 264 265 266 267 268 269 270 271 272 321 322 323 324 325 326 327 328 329 330 331 332 333 334 335 336 385 386 387 388 389 390 391 392 393 394 395 396 397 398 399 400 449 450 451 452 453 454 455 456 457 458 459 460 461 462 463 464 0
k 34 273 274 275 276 277 278 279 280 281 282 283 284 285 286 287 288 337 338 339 340 341 342 343 344 345 346 347 348 349 350 351 352 401 402 403 404 405 406 407 408 409 410 411 412 413 414 415 416 465 466 467 468 469 470 471 472 473 474 475 476 477 478 479 480 0
k 34 289 290 291 292 293 294 295 296 297 298 299 300 301 302 303 304 353 354 355 356 357 358 359 360 361 362 363 364 365 366 367 368 417 418 419 420 421 422 423 424 425 426 427 428 429 430 431 432 481 482 483 484 485 486 487 488 489 490 491 492 493 494 495 496 0
k 34 305 306 307 308 309 310 311 312 313 314 315 316 317 318 319 320 369 370 371 372 373 374 375 376 377 378 379 380 381 382 383 384 433 434 435 436 437 438 439 440 441 442 443 444 445 446 447 448 497 498 499 500 501 502 503 504 505 506 507 508 509 510 511 512 0
k 30 -257 -258 -259 -260 -261 -262 -263 -264 -265 -266 -267 -268 -269 -270 -271 -272 -321 -322 -323 -324 -325 -326 -327 -328 -329 -330 -331 -332 -333 -334 -335 -336 -385 -386 -387 -388 -389 -390 -391 -392 -393 -394 -395 -396 -397 -398 -399 -400 -449 -450 -451 -452 -453 -454 -455 -456 -457 -458 -459 -460 -461 -462 -463 -464 0
k 30 -273 -274 -275 -276 -277 -278 -279 -280 -281 -282 -283 -284 -285 -286 -287 -288 -337 -338 -339 -340 -341 -342 -343 -344 -345 -346 -347 -348 -349 -350 -351 -352 -401 -402 -403 -404 -405 -406 -407 -408 -409 -410 -411 -412 -413 -414 -415 -416 -465 -466 -467 -468 -469 -470 -471 -472 -473 -474 -475 -476 -477 -478 -479 -480 0
k 30 -289 -290 -291 -292 -293 -294 -295 -296 -297 -298 -299 -300 -301 -302 -303 -304 -353 -354 -355 -356 -357 -358 -359 -360 -361 -362 -363 -364 -365 -366 -367 -368 -417 -418 -419 -420 -421 -422 -423 -424 -425 -426 -427 -428 -429 -430 -431 -432 -481 -482 -483 -484 -485 -486 -487 -488 -489 -490 -491 -492 -493 -494 -495 -496 0
k 30 -305 -306 -307 -308 -309 -310 -311 -312 -313 -314 -315 -316 -317 -318 -319 -320 -369 -370 -371 -372 -373 -374 -375 -376 -377 -378 -379 -380 -381 -382 -383 -384 -433 -434 -435 -436 -437 -438 -439 -440 -441 -442 -443 -444 -445 -446 -447 -448 -497 -498 -499 -500 -501 -502 -503 -504 -505 -506 -507 -508 -509 -510 -511 -512 0
k 34 257 258 259 260 261 262 263 264 265 266 267 268 269 270 271 272 273 274 275 276 277 278 279 280 281 282 283 284 285 286 287 288 289 290 291 292 293 294 295 296 297 298 299 300 301 302 303 304 305 306 307 308 309 310 311 312 313 314 315 316 317 318 319 320 0
k 34 321 322 323 324 325 326 327 328 329 330 331 332 333 334 335 336 337 338 339 340 341 342 343 344 345 346 347 348 349 350 351 352 353 354 355 356 357 358 359 360 361 362 363 364 365 366 367 368 369 370 371 372 373 374 375 376 377 378 379 380 381 382 383 384 0
k 34 385 386 387 388 389 390 391 392 393 394 395 396 397 398 399 400 401 402 403 404 405 406 407 408 409 410 411 412 413 414 415 416 417 418 419 420 421 422 423 424 425 426 427 428 429 430 431 432 433 434 435 436 437 438 439 440 441 442 443 444 445 446 447 448 0
k 34 449 450 451 452 453 454 455 456 457 458 459 460 461 462 463 464 465 466 467 468 469 470 471 472 473 474 475 476 477 478 479 480 481 482 483 484 485 486 487 488 489 490 491 492 493 494 495 496 497 498 499 500 501 502 503 504 505 506 507 508 509 510 511 512 0
k 30 -257 -258 -259 -260 -261 -262 -263 -264 -265 -266 -267 -268 -269 -270 -271 -272 -273 -274 -275 -276 -277 -278 -279 -280 -281 -282 -283 -284 -285 -286 -287 -288 -289 -290 -291 -292 -293 -294 -295 -296 -297 -298 -299 -300 -301 -302 -303 -304 -305 -306 -307 -308 -309 -310 -311 -312 -313 -314 -315 -316 -317 -318 -319 -320 0
k 30 -321 -322 -323 -324 -325 -326 -327 -328 -329 -330 -331 -332 -333 -334 -335 -336 -337 -338 -339 -340 -341 -342 -343 -344 -345 -346 -347 -348 -349 -350 -351 -352 -353 -354 -355 -356 -357 -358 -359 -360 -361 -362 -363 -364 -365 -366 -367 -368 -369 -370 -371 -372 -373 -374 -375 -376 -377 -378 -379 -380 -381 -382 -383 -384 0
k 30 -385 -386 -387 -388 -389 -390 -391 -392 -393 -394 -395 -396 -397 -398 -399 -400 -401 -402 -403 -404 -405 -406 -407 -408 -409 -410 -411 -412 -413 -414 -415 -416 -417 -418 -419 -420 -421 -422 -423 -424 -425 -426 -427 -428 -429 -430 -431 -432 -433 -434 -435 -436 -437 -438 -439 -440 -441 -442 -443 -444 -445 -446 -447 -448 0
k 30 -449 -450 -451 -452 -453 -454 -455 -456 -457 -458 -459 -460 -461 -462 -463 -464 -465 -466 -467 -468 -469 -470 -471 -472 -473 -474 -475 -476 -477 -478 -479 -480 -481 -482 -483 -484 -485 -486 -487 -488 -489 -490 -491 -492 -493 -494 -495 -496 -497 -498 -499 -500 -501 -502 -503 -504 -505 -506 -507 -508 -509 -510 -511 -512 0
k 34 257 258 259 260 261 262 263 264 265 266 267 268 269 270 271 272 337 338 339 340 341 342 343 344 345 346 347 348 349 350 351 352 417 418 419 420 421 422 423 424 425 426 427 428 429 430 431 432 497 498 499 500 501 502 503 504 505 506 507 508 509 510 511 512 0
k 30 -257 -258 -259 -260 -261 -262 -263 -264 -265 -266 -267 -268 -269 -270 -271 -272 -337 -338 -339 -340 -341 -342 -343 -344 -345 -346 -347 -348 -349 -350 -351 -352 -417 -418 -419 -420 -421 -422 -423 -424 -425 -426 -427 -428 -429 -430 -431 -432 -497 -498 -499 -500 -501 -502 -503 -504 -505 -506 -507 -508 -509 -510 -511 -512 0
k 34 305 306 307 308 309 310 311 312 313 314 315 316 317 318 319 320 353 354 355 356 357 358 359 360 361 362 363 364 365 366 367 368 401 402 403 404 405 406 407 408 409 410 411 412 413 414 415 416 449 450 451 452 453 454 455 456 457 458 459 460 461 462 463 464 0
k 30 -305 -306 -307 -308 -309 -310 -311 -312 -313 -314 -315 -316 -317 -318 -319 -320 -353 -354 -355 -356 -357 -358 -359 -360 -361 -362 -363 -364 -365 -366 -367 -368 -401 -402 -403 -404 -405 -406 -407 -408 -409 -410 -411 -412 -413 -414 -415 -416 -449 -450 -451 -452 -453 -454 -455 -456 -457 -458 -459 -460 -461 -462 -463 -464 0
